n_skills = 8;
n_workers = 4;
has_skills = [{1, 2, 5, 6}, {1, 2, 7, 8}, {3, 4, 5}, {3, 4, 6}];
n_tasks = 30;
d = [2, 5, 2, 2, 1, 2, 2, 3, 3, 2, 1, 4, 1, 1, 3, 3, 2, 2, 2, 4, 3, 1, 3, 5, 1, 1, 1, 2, 2, 2];
rr = [| 0, 0, 0, 0, 0, 0, 0, 0, 0, 0, 0, 0, 0, 0, 0, 0, 0, 1, 1, 0, 0, 0, 0, 0, 0, 1, 0, 0, 1, 0
      | 0, 1, 0, 0, 0, 0, 0, 0, 0, 0, 0, 1, 0, 0, 0, 1, 1, 0, 0, 0, 0, 0, 1, 0, 0, 0, 0, 0, 0, 0
      | 1, 0, 0, 0, 1, 0, 0, 0, 0, 0, 0, 0, 0, 0, 0, 0, 1, 0, 0, 0, 0, 0, 0, 0, 1, 0, 0, 0, 0, 0
      | 0, 0, 0, 0, 0, 0, 0, 0, 1, 1, 0, 0, 0, 1, 0, 0, 0, 0, 1, 0, 0, 0, 0, 0, 0, 1, 1, 1, 1, 2
      | 0, 1, 0, 1, 0, 1, 0, 0, 0, 1, 0, 0, 1, 1, 0, 1, 0, 2, 0, 0, 0, 1, 1, 0, 0, 0, 0, 0, 1, 0
      | 2, 1, 0, 1, 0, 0, 1, 1, 0, 0, 1, 1, 1, 0, 2, 0, 1, 0, 0, 1, 0, 0, 0, 1, 0, 0, 2, 0, 0, 0
      | 0, 0, 0, 0, 0, 1, 0, 0, 0, 0, 0, 0, 0, 1, 0, 0, 0, 0, 0, 0, 1, 0, 0, 0, 0, 0, 0, 0, 0, 0
      | 0, 0, 1, 1, 0, 0, 0, 1, 1, 0, 1, 0, 0, 0, 0, 0, 0, 0, 0, 0, 0, 0, 0, 0, 0, 0, 0, 0, 0, 0 |];
suc = [{9, 10, 27}, {8, 14, 15}, {4, 5, 6}, {7}, {17, 26}, {13, 17}, {11, 12, 18}, {9}, {21}, {24}, {29}, {19}, {30}, {20, 23}, {16, 26, 29}, {17}, {20}, {28}, {22}, {25}, {22}, {25}, {24}, {25, 26, 29}, {28}, {30}, {30}, {}, {}, {}];

maxMakeSpan = 30;

% 1.) Work with some other agent
workTogether =   [{1,2}, {3,4}, {1,3}, {1,2,3}, {1,3,4}];
scWorkTogether = [    1,     2,     3,       4,     5];

% 2.) Do not work with other agent
workNotTogether =   [{1,4}, {2,3}, {2,4}];
scWorkNotTogether = [    6,     7,     8];

% 3.) Work on certain task preferably
desiredTaskWorkers = [2,   3,  4,  4];
desiredTasks =       [17,  3,  4,  2];
scDesireds =         [9,  10, 11, 12];

% 4.) Do not work on a certain task preferably  
avoidedTaskWorkers = [1,   1,  4];
avoidedTasks =       [2,   3, 19];
scAvoideds =         [13, 14, 15];

crTempEdges = [| 3, 1 |
                 2, 3 |
                 2, 4 |
                 4, 1 |
                 1, 6 |
                 1, 7 |
                 8, 3 |
                10, 4 |
                12, 4 |
                15, 1 |
                16, 15 |
                12, 17 |];
